NAME : tsp20_6.143.tour
COMMENT : Length = 143
COMMENT : Found by LKH [Keld Helsgaun]
TYPE : TOUR
DIMENSION : 20
TOUR_SECTION
1
3
5
15
8
13
16
12
18
9
10
7
4
19
11
14
6
17
2
20
-1
EOF
